Ni Nb  W                                
   1.00000000000000     
     7.7784981728000000    0.0000000000000000    0.0000000000000000
     0.0000000000000000   13.1377048492000004    0.0000000000000000
     0.0000000000000000    0.0000000000000000   28.7584705352999990
   Ni   Nb   W    Cl
    53     6    13     4
Selective dynamics
Direct
  0.0165369824775437  0.4775312813913416  0.2398709361766602   T   T   T
  0.1883890101459515  0.9743697661145633  0.2463641357300536   T   T   T
  0.0136612751565153  0.0274288916122419  0.1753693546032757   T   T   T
  0.1766874160134928  0.1963328524012216  0.1734791073372111   T   T   T
  0.1807193448072042  0.9764906653086245  0.1022920211555923   T   T   T
  0.8506169125489996  0.3137056163135991  0.2407327525160628   T   T   T
  0.1818560359999992  0.3093255160000012  0.0972650719999990   F   F   F
  0.5185816801022065  0.1978652772626173  0.1711878786049206   T   T   T
  0.6917462939999979  0.7035307880000019  0.0247470099999987   F   F   F
  0.0154341399084525  0.3609883976758648  0.1693538376722438   T   T   T
  0.6825675756951540  0.8029574700917492  0.2419537383561217   T   T   T
  0.5177471040000015  0.2996462580000028  0.0974301919999974   F   F   F
  0.3508246214940942  0.0323807799399331  0.1728117001286247   T   T   T
  0.8498555176530055  0.9750794942785987  0.2506224039926975   T   T   T
  0.8497515919999969  0.6403434280000013  0.0961147769999968   F   F   F
  0.6914543634471642  0.4833469264463411  0.2401489908030646   T   T   T
  0.6903860869763009  0.6945420581715910  0.1697288163961911   T   T   T
  0.0169899234307361  0.8101993313824465  0.1008268504251644   T   T   T
  0.0185414529999974  0.7024991509999978  0.0275625080000026   F   F   F
  0.3572297990000024  0.3579984610000011  0.0252356120000030   F   F   F
  0.8490834234405304  0.9755811352677342  0.1000553833458785   T   T   T
  0.0147341699999970  0.4708800610000026  0.0956616400000030   F   F   F
  0.5200393557172707  0.6457216633156505  0.2385984035314992   T   T   T
  0.3570583276230795  0.8066743818075954  0.2463852609627054   T   T   T
  0.5223903117033030  0.5259167879295855  0.1695129093164154   T   T   T
  0.3554882581994550  0.6987552883505579  0.1714938997781097   T   T   T
  0.0131144447218917  0.6935440503140542  0.1697414369767249   T   T   T
  0.8534010050000020  0.3019486959999966  0.0979355050000024   F   F   F
  0.3413650689999983  0.8095151189999967  0.0985551850000022   F   F   F
  0.3422156869999995  0.0250572039999994  0.0307581819999996   F   F   F
  0.1806233083415352  0.3152896332904991  0.2419737664368271   T   T   T
  0.8486854430000008  0.8656123880000024  0.0288366859999982   F   F   F
  0.5163532570532027  0.8603105399051311  0.1703372053350263   T   T   T
  0.6840624809999980  0.1393197769999972  0.0987225100000018   F   F   F
  0.8499851066793295  0.5275948668461501  0.1670667364113986   T   T   T
  0.3482605219999968  0.7007359859999980  0.0229743270000000   F   F   F
  0.0146077910000031  0.3566545250000033  0.0253795329999988   F   F   F
  0.6795498747388878  0.0289273552697340  0.1717656986960277   T   T   T
  0.6879191312458186  0.1432128707416148  0.2371410583294341   T   T   T
  0.5157557129999972  0.1856584849999976  0.0281831380000028   F   F   F
  0.8523347969999975  0.5345430369999988  0.0242095010000014   F   F   F
  0.3488406805292024  0.1401182135145286  0.1000720423768556   T   T   T
  0.6923144459999975  0.8071591260000019  0.0983073040000022   F   F   F
  0.8571101055781412  0.6464092025270970  0.2431950967743714   T   T   T
  0.3536347149999983  0.4732178450000006  0.0948955040000001   F   F   F
  0.6812764410000014  0.0258702209999981  0.0286196730000015   F   F   F
  0.1851409380000035  0.8634562490000022  0.0297011839999968   F   F   F
  0.5174187971825265  0.9756820366771159  0.0999046884595279   T   T   T
  0.8469746813703107  0.1975663271276312  0.1707638576531735   T   T   T
  0.0211668070000002  0.0254240820000007  0.0290910149999988   F   F   F
  0.6846335997259302  0.3612552675465885  0.1717147965347121   T   T   T
  0.8559145330000035  0.1876423360000032  0.0269342510000001   F   F   F
  0.1783759890000027  0.6445236799999989  0.0964093059999982   F   F   F
  0.5439446885347217  0.3153227559240265  0.2635723303755544   T   T   T
  0.1766777189999971  0.5275862809999978  0.0239309560000009   F   F   F
  0.9976911353896748  0.1424707381795281  0.2490308588993593   T   T   T
  0.5365906359999997  0.5354745389999991  0.0088244169999996   F   F   F
  0.3563013568814714  0.1465454895427588  0.2478409006540765   T   T   T
  0.5078402159999982  0.6487638349999969  0.0954028519999994   F   F   F
  0.3630046927288022  0.4839259043696234  0.2494432777404579   T   T   T
  0.3568596342241681  0.3579359986718945  0.1739258202935263   T   T   T
  0.8390489410124535  0.8657303062245291  0.1721621059932699   T   T   T
  0.5200318099999990  0.8654208780000019  0.0321695470000023   F   F   F
  0.1904657736628819  0.8622422934639117  0.1749518657362338   T   T   T
  0.0156928918606059  0.8139863398693977  0.2464151233367687   T   T   T
  0.5204936598151830  0.9675098339042483  0.2425723196794029   T   T   T
  0.6847048999999998  0.4701468049999988  0.0940269379999989   F   F   F
  0.1914459112428615  0.6416339108268794  0.2403763388408593   T   T   T
  0.1797580447467359  0.5269240521264975  0.1654424205083626   T   T   T
  0.1887740190000002  0.1937963519999997  0.0281904320000024   F   F   F
  0.6843605039999971  0.3492299320000001  0.0260038640000033   F   F   F
  0.0153915434188260  0.1374569613114064  0.1011390603320800   T   T   T
  0.4479363351881763  0.1926170715648695  0.3271896779014772   T   T   T
  0.4253238908722653  0.4359865992527830  0.3283223025000832   T   T   T
 -0.0013684496767498  0.2690382558560093  0.3109928538564096   T   T   T
  0.6666090617062012 -0.0403743777749690  0.3160994653266605   T   T   T
 
  0.00000000E+00  0.00000000E+00  0.00000000E+00
  0.00000000E+00  0.00000000E+00  0.00000000E+00
  0.00000000E+00  0.00000000E+00  0.00000000E+00
  0.00000000E+00  0.00000000E+00  0.00000000E+00
  0.00000000E+00  0.00000000E+00  0.00000000E+00
  0.00000000E+00  0.00000000E+00  0.00000000E+00
  0.00000000E+00  0.00000000E+00  0.00000000E+00
  0.00000000E+00  0.00000000E+00  0.00000000E+00
  0.00000000E+00  0.00000000E+00  0.00000000E+00
  0.00000000E+00  0.00000000E+00  0.00000000E+00
  0.00000000E+00  0.00000000E+00  0.00000000E+00
  0.00000000E+00  0.00000000E+00  0.00000000E+00
  0.00000000E+00  0.00000000E+00  0.00000000E+00
  0.00000000E+00  0.00000000E+00  0.00000000E+00
  0.00000000E+00  0.00000000E+00  0.00000000E+00
  0.00000000E+00  0.00000000E+00  0.00000000E+00
  0.00000000E+00  0.00000000E+00  0.00000000E+00
  0.00000000E+00  0.00000000E+00  0.00000000E+00
  0.00000000E+00  0.00000000E+00  0.00000000E+00
  0.00000000E+00  0.00000000E+00  0.00000000E+00
  0.00000000E+00  0.00000000E+00  0.00000000E+00
  0.00000000E+00  0.00000000E+00  0.00000000E+00
  0.00000000E+00  0.00000000E+00  0.00000000E+00
  0.00000000E+00  0.00000000E+00  0.00000000E+00
  0.00000000E+00  0.00000000E+00  0.00000000E+00
  0.00000000E+00  0.00000000E+00  0.00000000E+00
  0.00000000E+00  0.00000000E+00  0.00000000E+00
  0.00000000E+00  0.00000000E+00  0.00000000E+00
  0.00000000E+00  0.00000000E+00  0.00000000E+00
  0.00000000E+00  0.00000000E+00  0.00000000E+00
  0.00000000E+00  0.00000000E+00  0.00000000E+00
  0.00000000E+00  0.00000000E+00  0.00000000E+00
  0.00000000E+00  0.00000000E+00  0.00000000E+00
  0.00000000E+00  0.00000000E+00  0.00000000E+00
  0.00000000E+00  0.00000000E+00  0.00000000E+00
  0.00000000E+00  0.00000000E+00  0.00000000E+00
  0.00000000E+00  0.00000000E+00  0.00000000E+00
  0.00000000E+00  0.00000000E+00  0.00000000E+00
  0.00000000E+00  0.00000000E+00  0.00000000E+00
  0.00000000E+00  0.00000000E+00  0.00000000E+00
  0.00000000E+00  0.00000000E+00  0.00000000E+00
  0.00000000E+00  0.00000000E+00  0.00000000E+00
  0.00000000E+00  0.00000000E+00  0.00000000E+00
  0.00000000E+00  0.00000000E+00  0.00000000E+00
  0.00000000E+00  0.00000000E+00  0.00000000E+00
  0.00000000E+00  0.00000000E+00  0.00000000E+00
  0.00000000E+00  0.00000000E+00  0.00000000E+00
  0.00000000E+00  0.00000000E+00  0.00000000E+00
  0.00000000E+00  0.00000000E+00  0.00000000E+00
  0.00000000E+00  0.00000000E+00  0.00000000E+00
  0.00000000E+00  0.00000000E+00  0.00000000E+00
  0.00000000E+00  0.00000000E+00  0.00000000E+00
  0.00000000E+00  0.00000000E+00  0.00000000E+00
  0.00000000E+00  0.00000000E+00  0.00000000E+00
  0.00000000E+00  0.00000000E+00  0.00000000E+00
  0.00000000E+00  0.00000000E+00  0.00000000E+00
  0.00000000E+00  0.00000000E+00  0.00000000E+00
  0.00000000E+00  0.00000000E+00  0.00000000E+00
  0.00000000E+00  0.00000000E+00  0.00000000E+00
  0.00000000E+00  0.00000000E+00  0.00000000E+00
  0.00000000E+00  0.00000000E+00  0.00000000E+00
  0.00000000E+00  0.00000000E+00  0.00000000E+00
  0.00000000E+00  0.00000000E+00  0.00000000E+00
  0.00000000E+00  0.00000000E+00  0.00000000E+00
  0.00000000E+00  0.00000000E+00  0.00000000E+00
  0.00000000E+00  0.00000000E+00  0.00000000E+00
  0.00000000E+00  0.00000000E+00  0.00000000E+00
  0.00000000E+00  0.00000000E+00  0.00000000E+00
  0.00000000E+00  0.00000000E+00  0.00000000E+00
  0.00000000E+00  0.00000000E+00  0.00000000E+00
  0.00000000E+00  0.00000000E+00  0.00000000E+00
  0.00000000E+00  0.00000000E+00  0.00000000E+00
  0.00000000E+00  0.00000000E+00  0.00000000E+00
  0.00000000E+00  0.00000000E+00  0.00000000E+00
  0.00000000E+00  0.00000000E+00  0.00000000E+00
  0.00000000E+00  0.00000000E+00  0.00000000E+00
  0.00000000E+00  0.00000000E+00  0.00000000E+00
