Ni Nb  W                                
   1.00000000000000     
     7.7784981728000000    0.0000000000000000    0.0000000000000000
     0.0000000000000000   13.1377048492000004    0.0000000000000000
     0.0000000000000000    0.0000000000000000   28.7584705352999990
   Ni   Nb   W    Cl
    53     6    13     3
Selective dynamics
Direct
  0.0147629873809944  0.4791474797014555  0.2384893196152829   T   T   T
  0.1852448964042812  0.9755883627279277  0.2473156860175207   T   T   T
  0.0152179948525190  0.0272247806850323  0.1745500311005591   T   T   T
  0.1729120897215937  0.1970467364488150  0.1715520733436475   T   T   T
  0.1789202608021558  0.9738901622444535  0.1023132834190409   T   T   T
  0.8663551181901009  0.3146167518336469  0.2381128727392988   T   T   T
  0.1818560359999992  0.3093255160000012  0.0972650719999990   F   F   F
  0.5202630558704693  0.1966063615736397  0.1717278487043816   T   T   T
  0.6917462939999979  0.7035307880000019  0.0247470099999987   F   F   F
  0.0199970652758885  0.3625210335666158  0.1684886702341799   T   T   T
  0.6835339682310068  0.8063813720354681  0.2413231037310777   T   T   T
  0.5177471040000015  0.2996462580000028  0.0974301919999974   F   F   F
  0.3470562311513328  0.0315936827781668  0.1720067653784055   T   T   T
  0.8412013482883088  0.9751626297176847  0.2445035483983690   T   T   T
  0.8497515919999969  0.6403434280000013  0.0961147769999968   F   F   F
  0.6915452625665481  0.4805483949105151  0.2379503324415702   T   T   T
  0.6867916540896531  0.6936415607671694  0.1696414075735907   T   T   T
  0.0164371570108771  0.8073366634927950  0.1022446495825981   T   T   T
  0.0185414529999974  0.7024991509999978  0.0275625080000026   F   F   F
  0.3572297990000024  0.3579984610000011  0.0252356120000030   F   F   F
  0.8488320624651657  0.9739895216064022  0.0997824220866455   T   T   T
  0.0147341699999970  0.4708800610000026  0.0956616400000030   F   F   F
  0.5214874141806999  0.6406959617100502  0.2414927052438461   T   T   T
  0.3608689651321292  0.8093772793224114  0.2465237542022291   T   T   T
  0.5230688114697390  0.5269461893798462  0.1690180220569046   T   T   T
  0.3467287145902206  0.6932204418267918  0.1741717288220513   T   T   T
  0.0215292000297968  0.6941146774262954  0.1761336253609640   T   T   T
  0.8534010050000020  0.3019486959999966  0.0979355050000024   F   F   F
  0.3413650689999983  0.8095151189999967  0.0985551850000022   F   F   F
  0.3422156869999995  0.0250572039999994  0.0307581819999996   F   F   F
  0.1829832568260056  0.3128707159199503  0.2427069848021844   T   T   T
  0.8486854430000008  0.8656123880000024  0.0288366859999982   F   F   F
  0.5119100561284867  0.8576759390425271  0.1691304132734915   T   T   T
  0.6840624809999980  0.1393197769999972  0.0987225100000018   F   F   F
  0.8534687801805120  0.5289736597408571  0.1671781138480576   T   T   T
  0.3482605219999968  0.7007359859999980  0.0229743270000000   F   F   F
  0.0146077910000031  0.3566545250000033  0.0253795329999988   F   F   F
  0.6806618125952137  0.0316926866119219  0.1706033488099469   T   T   T
  0.6819854934254991  0.1392254400789095  0.2430631455114863   T   T   T
  0.5157557129999972  0.1856584849999976  0.0281831380000028   F   F   F
  0.8523347969999975  0.5345430369999988  0.0242095010000014   F   F   F
  0.3477216615507897  0.1395307234972240  0.0997315199809305   T   T   T
  0.6923144459999975  0.8071591260000019  0.0983073040000022   F   F   F
  0.8471181124653304  0.6394153049010249  0.2401673835111370   T   T   T
  0.3536347149999983  0.4732178450000006  0.0948955040000001   F   F   F
  0.6812764410000014  0.0258702209999981  0.0286196730000015   F   F   F
  0.1851409380000035  0.8634562490000022  0.0297011839999968   F   F   F
  0.5160513525356247  0.9754949050825253  0.0997850325401076   T   T   T
  0.8438299771700402  0.1961274300723996  0.1710987086544013   T   T   T
  0.0211668070000002  0.0254240820000007  0.0290910149999988   F   F   F
  0.6876301868329964  0.3595111846665126  0.1692096558230168   T   T   T
  0.8559145330000035  0.1876423360000032  0.0269342510000001   F   F   F
  0.1783759890000027  0.6445236799999989  0.0964093059999982   F   F   F
  0.5592893689696076  0.3151429759804011  0.2521149912340162   T   T   T
  0.1766777189999971  0.5275862809999978  0.0239309560000009   F   F   F
  0.9938486753435474  0.1427234675256862  0.2470207670882467   T   T   T
  0.5365906359999997  0.5354745389999991  0.0088244169999996   F   F   F
  0.3463583638171380  0.1518884029907597  0.2444607841915214   T   T   T
  0.5078402159999982  0.6487638349999969  0.0954028519999994   F   F   F
  0.3604830683019264  0.4755906449663462  0.2446431469148747   T   T   T
  0.3551876225858059  0.3549452419931839  0.1695595996699607   T   T   T
  0.8340244829693668  0.8653674658390574  0.1714100548933652   T   T   T
  0.5200318099999990  0.8654208780000019  0.0321695470000023   F   F   F
  0.1852374964182279  0.8602939354148562  0.1769410866772181   T   T   T
  0.0066730888124190  0.8175746696370034  0.2527869773344952   T   T   T
  0.5191297259285725  0.9713257566337979  0.2382112602902928   T   T   T
  0.6847048999999998  0.4701468049999988  0.0940269379999989   F   F   F
  0.1758178938953527  0.6455627471359562  0.2587885290248179   T   T   T
  0.1824843148813142  0.5315739913497404  0.1680630994811581   T   T   T
  0.1887740190000002  0.1937963519999997  0.0281904320000024   F   F   F
  0.6843605039999971  0.3492299320000001  0.0260038640000033   F   F   F
  0.0138549922360185  0.1360664292246885  0.1003932769664811   T   T   T
  0.0199541265978829  0.7299889762966978  0.3270051638194115   T   T   T
  0.4288936122723028  0.7064001341359701  0.3103941625325300   T   T   T
  0.1931912230246074  0.5000019337384635  0.3165081538488050   T   T   T
 
  0.00000000E+00  0.00000000E+00  0.00000000E+00
  0.00000000E+00  0.00000000E+00  0.00000000E+00
  0.00000000E+00  0.00000000E+00  0.00000000E+00
  0.00000000E+00  0.00000000E+00  0.00000000E+00
  0.00000000E+00  0.00000000E+00  0.00000000E+00
  0.00000000E+00  0.00000000E+00  0.00000000E+00
  0.00000000E+00  0.00000000E+00  0.00000000E+00
  0.00000000E+00  0.00000000E+00  0.00000000E+00
  0.00000000E+00  0.00000000E+00  0.00000000E+00
  0.00000000E+00  0.00000000E+00  0.00000000E+00
  0.00000000E+00  0.00000000E+00  0.00000000E+00
  0.00000000E+00  0.00000000E+00  0.00000000E+00
  0.00000000E+00  0.00000000E+00  0.00000000E+00
  0.00000000E+00  0.00000000E+00  0.00000000E+00
  0.00000000E+00  0.00000000E+00  0.00000000E+00
  0.00000000E+00  0.00000000E+00  0.00000000E+00
  0.00000000E+00  0.00000000E+00  0.00000000E+00
  0.00000000E+00  0.00000000E+00  0.00000000E+00
  0.00000000E+00  0.00000000E+00  0.00000000E+00
  0.00000000E+00  0.00000000E+00  0.00000000E+00
  0.00000000E+00  0.00000000E+00  0.00000000E+00
  0.00000000E+00  0.00000000E+00  0.00000000E+00
  0.00000000E+00  0.00000000E+00  0.00000000E+00
  0.00000000E+00  0.00000000E+00  0.00000000E+00
  0.00000000E+00  0.00000000E+00  0.00000000E+00
  0.00000000E+00  0.00000000E+00  0.00000000E+00
  0.00000000E+00  0.00000000E+00  0.00000000E+00
  0.00000000E+00  0.00000000E+00  0.00000000E+00
  0.00000000E+00  0.00000000E+00  0.00000000E+00
  0.00000000E+00  0.00000000E+00  0.00000000E+00
  0.00000000E+00  0.00000000E+00  0.00000000E+00
  0.00000000E+00  0.00000000E+00  0.00000000E+00
  0.00000000E+00  0.00000000E+00  0.00000000E+00
  0.00000000E+00  0.00000000E+00  0.00000000E+00
  0.00000000E+00  0.00000000E+00  0.00000000E+00
  0.00000000E+00  0.00000000E+00  0.00000000E+00
  0.00000000E+00  0.00000000E+00  0.00000000E+00
  0.00000000E+00  0.00000000E+00  0.00000000E+00
  0.00000000E+00  0.00000000E+00  0.00000000E+00
  0.00000000E+00  0.00000000E+00  0.00000000E+00
  0.00000000E+00  0.00000000E+00  0.00000000E+00
  0.00000000E+00  0.00000000E+00  0.00000000E+00
  0.00000000E+00  0.00000000E+00  0.00000000E+00
  0.00000000E+00  0.00000000E+00  0.00000000E+00
  0.00000000E+00  0.00000000E+00  0.00000000E+00
  0.00000000E+00  0.00000000E+00  0.00000000E+00
  0.00000000E+00  0.00000000E+00  0.00000000E+00
  0.00000000E+00  0.00000000E+00  0.00000000E+00
  0.00000000E+00  0.00000000E+00  0.00000000E+00
  0.00000000E+00  0.00000000E+00  0.00000000E+00
  0.00000000E+00  0.00000000E+00  0.00000000E+00
  0.00000000E+00  0.00000000E+00  0.00000000E+00
  0.00000000E+00  0.00000000E+00  0.00000000E+00
  0.00000000E+00  0.00000000E+00  0.00000000E+00
  0.00000000E+00  0.00000000E+00  0.00000000E+00
  0.00000000E+00  0.00000000E+00  0.00000000E+00
  0.00000000E+00  0.00000000E+00  0.00000000E+00
  0.00000000E+00  0.00000000E+00  0.00000000E+00
  0.00000000E+00  0.00000000E+00  0.00000000E+00
  0.00000000E+00  0.00000000E+00  0.00000000E+00
  0.00000000E+00  0.00000000E+00  0.00000000E+00
  0.00000000E+00  0.00000000E+00  0.00000000E+00
  0.00000000E+00  0.00000000E+00  0.00000000E+00
  0.00000000E+00  0.00000000E+00  0.00000000E+00
  0.00000000E+00  0.00000000E+00  0.00000000E+00
  0.00000000E+00  0.00000000E+00  0.00000000E+00
  0.00000000E+00  0.00000000E+00  0.00000000E+00
  0.00000000E+00  0.00000000E+00  0.00000000E+00
  0.00000000E+00  0.00000000E+00  0.00000000E+00
  0.00000000E+00  0.00000000E+00  0.00000000E+00
  0.00000000E+00  0.00000000E+00  0.00000000E+00
  0.00000000E+00  0.00000000E+00  0.00000000E+00
  0.00000000E+00  0.00000000E+00  0.00000000E+00
  0.00000000E+00  0.00000000E+00  0.00000000E+00
  0.00000000E+00  0.00000000E+00  0.00000000E+00
