general:
  ISTART = 0
  ICHARG = 2
  SYSTEM = clean (100) surface
  ENCUT = 600
  ISMEAR = 2 ; SIGMA = 0.01
  ALGO = Fast
  EDIFF = 1E-06
  EDIFFG = -1E-02
  NSW = 250
  POTIM = 0.1
  NCORE = 24
  ISPIN = 2
  IBRION = 2
  LREAL = Auto
  