Ni Nb  W 
 1.0000000000000000
     7.7784984111749997    0.0000000000000000    0.0000000000000000
     0.0000000000000000   13.1377052892990420    0.0000000000000000
     0.0000000000000000    0.0000000000000000   28.7584701928660280
 Ni  Nb  W  
  53   6  13
Direct
 -0.0000000765057687  0.5034130728042755  0.2299737275637019
  0.2031239737325252  0.0000000000000000  0.2299737275637019
  0.0000000000000000  0.0000000000000000  0.1522763577848223
  0.2031239737325252  0.1700797394709422  0.1522763577848223
  0.2031239737325252  0.0000000000000000  0.0776973697788796
  0.8697906403991917  0.3333333333333333  0.2299737275637019
  0.2031239737325252  0.3333333333333333  0.0776973697788796
  0.5364573070658586  0.1700797394709422  0.1522763577848223
  0.6666666666666666  0.6666666666666666  0.0000000000000000
  0.0000000000000000  0.3333333333333333  0.1522763577848223
  0.6666665901608979  0.8367464061376089  0.2299737275637019
  0.5364573070658586  0.3333333333333333  0.0776973697788796
  0.3333333333333333  0.0000000000000000  0.1522763577848223
  0.8697906403991917  0.0000000000000000  0.2299737275637019
  0.8697906403991917  0.6666666666666666  0.0776973697788796
  0.6666665901608979  0.5034130728042755  0.2299737275637019
  0.6666666666666666  0.6666666666666666  0.1522763577848223
 -0.0000000765057687  0.8367464061376089  0.0776973697788796
  0.0000000000000000  0.6666666666666666  0.0000000000000000
  0.3333333333333333  0.3333333333333333  0.0000000000000000
  0.8697906403991917  0.0000000000000000  0.0776973697788796
 -0.0000000765057687  0.5034130728042755  0.0776973697788796
  0.5364573070658586  0.6666666666666666  0.2299737275637019
  0.3333332568275647  0.8367464061376089  0.2299737275637019
  0.5364573070658586  0.5034130728042755  0.1522763577848223
  0.3333333333333333  0.6666666666666666  0.1522763577848223
  0.0000000000000000  0.6666666666666666  0.1522763577848223
  0.8697906403991917  0.3333333333333333  0.0776973697788796
  0.3333332568275647  0.8367464061376089  0.0776973697788796
  0.3333333333333333  0.0000000000000000  0.0000000000000000
  0.2031239737325252  0.3333333333333333  0.2299737275637019
  0.8697906403991917  0.8367464061376089  0.0000000000000000
  0.5364573070658586  0.8367464061376089  0.1522763577848223
  0.6666665901608979  0.1700797394709422  0.0776973697788796
  0.8697906403991917  0.5034130728042755  0.1522763577848223
  0.3333333333333333  0.6666666666666666  0.0000000000000000
  0.0000000000000000  0.3333333333333333  0.0000000000000000
  0.6666666666666666  0.0000000000000000  0.1522763577848223
  0.6666665901608979  0.1700797394709422  0.2299737275637019
  0.5364573070658586  0.1700797394709422  0.0000000000000000
  0.8697906403991917  0.5034130728042755  0.0000000000000000
  0.3333332568275647  0.1700797394709422  0.0776973697788796
  0.6666665901608979  0.8367464061376089  0.0776973697788796
  0.8697906403991917  0.6666666666666666  0.2299737275637019
  0.3333332568275647  0.5034130728042755  0.0776973697788796
  0.6666666666666666  0.0000000000000000  0.0000000000000000
  0.2031239737325252  0.8367464061376089  0.0000000000000000
  0.5364573070658586  0.0000000000000000  0.0776973697788796
  0.8697906403991917  0.1700797394709422  0.1522763577848223
  0.0000000000000000  0.0000000000000000  0.0000000000000000
  0.6666666666666666  0.3333333333333333  0.1522763577848223
  0.8697906403991917  0.1700797394709422  0.0000000000000000
  0.2031239737325252  0.6666666666666666  0.0776973697788796
  0.5364573070658586  0.3333333333333333  0.2299737275637019
  0.2031239737325252  0.5034130728042755  0.0000000000000000
 -0.0000000765057687  0.1700797394709422  0.2299737275637019
  0.5364573070658586  0.5034130728042755  0.0000000000000000
  0.3333332568275647  0.1700797394709422  0.2299737275637019
  0.5364573070658586  0.6666666666666666  0.0776973697788796
  0.3333332568275647  0.5034130728042755  0.2299737275637019
  0.3333333333333333  0.3333333333333333  0.1522763577848223
  0.8697906403991917  0.8367464061376089  0.1522763577848223
  0.5364573070658586  0.8367464061376089  0.0000000000000000
  0.2031239737325252  0.8367464061376089  0.1522763577848223
 -0.0000000765057687  0.8367464061376089  0.2299737275637019
  0.5364573070658586  0.0000000000000000  0.2299737275637019
  0.6666665901608979  0.5034130728042755  0.0776973697788796
  0.2031239737325252  0.6666666666666666  0.2299737275637019
  0.2031239737325252  0.5034130728042755  0.1522763577848223
  0.2031239737325252  0.1700797394709422  0.0000000000000000
  0.6666666666666666  0.3333333333333333  0.0000000000000000
 -0.0000000765057687  0.1700797394709422  0.0776973697788796
