Ni Nb  W
1.0
        7.7784981728         0.0000000000         0.0000000000
        0.0000000000        13.1377048492         0.0000000000
        0.0000000000         0.0000000000        28.7584705353
   Ni   Nb    W  Cl
   53    6   13   15
selective dynamics
Direct
     0.017787762         0.478742182         0.239747345  T  T  T
     0.189468339         0.974314690         0.248550445  T  T  T
     0.016729468         0.027617862         0.175419390  T  T  T
     0.174891844         0.196951106         0.172420666  T  T  T
     0.180170164         0.975296736         0.102638282  T  T  T
     0.869977593         0.315198302         0.239253551  T  T  T
     0.181856036         0.309325516         0.097265072  F  F  F
     0.521078885         0.197048411         0.172147974  T  T  T
     0.691746294         0.703530788         0.024747010  F  F  F
     0.019089373         0.361074418         0.168880224  T  T  T
     0.682403684         0.804478765         0.243927613  T  T  T
     0.517747104         0.299646258         0.097430192  F  F  F
     0.348908335         0.031705249         0.173191935  T  T  T
     0.845458865         0.971884549         0.246833533  T  T  T
     0.849751592         0.640343428         0.096114777  F  F  F
     0.693838835         0.482764304         0.239484996  T  T  T
     0.688520968         0.694379985         0.170012459  T  T  T
     0.017270556         0.809553921         0.101470649  T  T  T
     0.018541453         0.702499151         0.027562508  F  F  F
     0.357229799         0.357998461         0.025235612  F  F  F
     0.848923564         0.974463642         0.100201905  T  T  T
     0.014734170         0.470880061         0.095661640  F  F  F
     0.519664466         0.642745614         0.240961075  T  T  T
     0.359647691         0.806104958         0.247944340  T  T  T
     0.522681057         0.526563406         0.169731095  T  T  T
     0.354977310         0.697238564         0.172880948  T  T  T
     0.016061302         0.693076491         0.170645028  T  T  T
     0.853401005         0.301948696         0.097935505  F  F  F
     0.341365069         0.809515119         0.098555185  F  F  F
     0.342215687         0.025057204         0.030758182  F  F  F
     0.185150445         0.315226793         0.245124429  T  T  T
     0.848685443         0.865612388         0.028836686  F  F  F
     0.515344799         0.859809756         0.170006707  T  T  T
     0.684062481         0.139319777         0.098722510  F  F  F
     0.852296233         0.528623343         0.167299211  T  T  T
     0.348260522         0.700735986         0.022974327  F  F  F
     0.014607791         0.356654525         0.025379533  F  F  F
     0.682469070         0.031005930         0.171596348  T  T  T
     0.682038784         0.136774689         0.243522525  T  T  T
     0.515755713         0.185658485         0.028183138  F  F  F
     0.852334797         0.534543037         0.024209501  F  F  F
     0.347998828         0.139581174         0.100044824  T  T  T
     0.692314446         0.807159126         0.098307304  F  F  F
     0.851056457         0.642373145         0.241309091  T  T  T
     0.353634715         0.473217845         0.094895504  F  F  F
     0.681276441         0.025870221         0.028619673  F  F  F
     0.185140938         0.863456249         0.029701184  F  F  F
     0.516639173         0.975479662         0.100027554  T  T  T
     0.844053388         0.196118623         0.171749920  T  T  T
     0.021166807         0.025424082         0.029091015  F  F  F
     0.688653529         0.360057652         0.169994995  T  T  T
     0.855914533         0.187642336         0.026934251  F  F  F
     0.178375989         0.644523680         0.096409306  F  F  F
     0.562924147         0.316630691         0.252264142  T  T  T
     0.176677719         0.527586281         0.023930956  F  F  F
     0.995686233         0.141858429         0.247355998  T  T  T
     0.536590636         0.535474539         0.008824417  F  F  F
     0.347671032         0.152845219         0.245434582  T  T  T
     0.507840216         0.648763835         0.095402852  F  F  F
     0.355734915         0.476038098         0.245950952  T  T  T
     0.355350494         0.356348693         0.170686975  T  T  T
     0.838262498         0.865284920         0.172657326  T  T  T
     0.520031810         0.865420878         0.032169547  F  F  F
     0.188090578         0.860863805         0.176928788  T  T  T
     0.013024731         0.810218573         0.249423653  T  T  T
     0.521154463         0.968242347         0.239712685  T  T  T
     0.684704900         0.470146805         0.094026938  F  F  F
     0.187648624         0.642171204         0.243507415  T  T  T
     0.180665389         0.528429151         0.165374473  T  T  T
     0.188774019         0.193796352         0.028190432  F  F  F
     0.684360504         0.349229932         0.026003864  F  F  F
     0.013899169         0.136704370         0.100659840  T  T  T
     0.01673  0.01762  0.32  T   T   T
     0.34891  0.03171  0.32  T   T   T
     0.68247  0.03101  0.32  T   T   T
     0.17489  0.19695  0.32  T   T   T
     0.54108  0.19705  0.32  T   T   T
     0.01909  0.36107  0.32  T   T   T
     0.35535  0.35635  0.32  T   T   T
     0.70865  0.38006  0.32  T   T   T
     0.18067  0.50843  0.32  T   T   T
     0.52268  0.52656  0.32  T   T   T
     0.01606  0.69308  0.32  T   T   T
     0.35498  0.69724  0.32  T   T   T
     0.68852  0.69438  0.32  T   T   T
     0.18809  0.86086  0.32  T   T   T
     0.51534  0.83981  0.32  T   T   T
