Ni Nb  W                                
   1.00000000000000     
     7.7784981728000000    0.0000000000000000    0.0000000000000000
     0.0000000000000000   13.1377048492000004    0.0000000000000000
     0.0000000000000000    0.0000000000000000   28.7584705352999990
   Ni   Nb   W    Cl
    53     5    13     2
Selective dynamics
Direct
  0.0017439158096399  0.4773105388118999  0.2378520565143169   T   T   T
  0.1919346814321756  0.9752565605041364  0.2459546107431170   T   T   T
  0.0145035403761197  0.0278275401116708  0.1753055196167423   T   T   T
  0.1749291226089281  0.1955303767675693  0.1735591462565300   T   T   T
  0.1810458990431285  0.9760330077428772  0.1024556058149192   T   T   T
  0.8431602821009269  0.3113003601179165  0.2380299001119683   T   T   T
  0.1818560359999992  0.3093255160000012  0.0972650719999990   F   F   F
  0.5227544763908261  0.1970702155166466  0.1712273261395033   T   T   T
  0.6917462939999979  0.7035307880000019  0.0247470099999987   F   F   F
  0.0128870911437829  0.3606397439036425  0.1681305745948579   T   T   T
  0.6788245985455830  0.8059608623621516  0.2439047255400752   T   T   T
  0.5177471040000015  0.2996462580000028  0.0974301919999974   F   F   F
  0.3483606738171616  0.0360418244484004  0.1735348368203878   T   T   T
  0.8461782765097825  0.9734557470546736  0.2464173880906038   T   T   T
  0.8497515919999969  0.6403434280000013  0.0961147769999968   F   F   F
  0.6823249847749564  0.4768036170307932  0.2369932988929889   T   T   T
  0.6886567013586933  0.6954342367546751  0.1693003602235259   T   T   T
  0.0170728832800625  0.8091871585738978  0.1018094750940843   T   T   T
  0.0185414529999974  0.7024991509999978  0.0275625080000026   F   F   F
  0.3572297990000024  0.3579984610000011  0.0252356120000030   F   F   F
  0.8498491414074495  0.9745747598911768  0.1001375798705169   T   T   T
  0.0147341699999970  0.4708800610000026  0.0956616400000030   F   F   F
  0.5223350740618792  0.6429228233756890  0.2386007278098517   T   T   T
  0.3553968033534648  0.8061572454443545  0.2461726337646919   T   T   T
  0.5200666200341153  0.5266623190525785  0.1681153345422874   T   T   T
  0.3494381518339604  0.6965767906057413  0.1727072934955431   T   T   T
  0.0165122253363510  0.6928395325994756  0.1719102747855149   T   T   T
  0.8534010050000020  0.3019486959999966  0.0979355050000024   F   F   F
  0.3413650689999983  0.8095151189999967  0.0985551850000022   F   F   F
  0.3422156869999995  0.0250572039999994  0.0307581819999996   F   F   F
  0.1636318239366815  0.3199224570832939  0.2396827349347918   T   T   T
  0.8486854430000008  0.8656123880000024  0.0288366859999982   F   F   F
  0.5152186501523032  0.8595882289005460  0.1694809930941614   T   T   T
  0.6840624809999980  0.1393197769999972  0.0987225100000018   F   F   F
  0.8493548346373633  0.5290759749620977  0.1667663119173848   T   T   T
  0.3482605219999968  0.7007359859999980  0.0229743270000000   F   F   F
  0.0146077910000031  0.3566545250000033  0.0253795329999988   F   F   F
  0.6814020174460245  0.0306622628345695  0.1709177123833391   T   T   T
  0.6837451998204983  0.1363233789117516  0.2409434034358840   T   T   T
  0.5157557129999972  0.1856584849999976  0.0281831380000028   F   F   F
  0.8523347969999975  0.5345430369999988  0.0242095010000014   F   F   F
  0.3485395246741780  0.1401539130892759  0.0999670108901716   T   T   T
  0.6923144459999975  0.8071591260000019  0.0983073040000022   F   F   F
  0.8462875667700217  0.6393517472572362  0.2404229778412497   T   T   T
  0.3536347149999983  0.4732178450000006  0.0948955040000001   F   F   F
  0.6812764410000014  0.0258702209999981  0.0286196730000015   F   F   F
  0.1851409380000035  0.8634562490000022  0.0297011839999968   F   F   F
  0.5165980655132401  0.9755136657199840  0.0997873688114394   T   T   T
  0.8431392086518874  0.1960568931981964  0.1711849988008245   T   T   T
  0.0211668070000002  0.0254240820000007  0.0290910149999988   F   F   F
  0.6788172385067923  0.3603034902225130  0.1693860389908285   T   T   T
  0.8559145330000035  0.1876423360000032  0.0269342510000001   F   F   F
  0.1783759890000027  0.6445236799999989  0.0964093059999982   F   F   F
  0.1766777189999971  0.5275862809999978  0.0239309560000009   F   F   F
  0.0074920787276898  0.1437927268089610  0.2500877154538261   T   T   T
  0.5365906359999997  0.5354745389999991  0.0088244169999996   F   F   F
  0.3717999838319079  0.1667359781483400  0.2475374747802389   T   T   T
  0.5078402159999982  0.6487638349999969  0.0954028519999994   F   F   F
  0.3692635315559236  0.4745525289227325  0.2455888023094074   T   T   T
  0.3539750938863887  0.3551905303026106  0.1719428434591297   T   T   T
  0.8381344839725097  0.8655820452885206  0.1727739747656181   T   T   T
  0.5200318099999990  0.8654208780000019  0.0321695470000023   F   F   F
  0.1908660282861453  0.8629676072192657  0.1754144983762834   T   T   T
  0.0105502516459266  0.8075678593564110  0.2466676468844674   T   T   T
  0.5176156172217808  0.9710038709621183  0.2387313605027749   T   T   T
  0.6847048999999998  0.4701468049999988  0.0940269379999989   F   F   F
  0.1887964789772250  0.6362739446329041  0.2482669310825821   T   T   T
  0.1805931245408117  0.5285840875012883  0.1675004504764448   T   T   T
  0.1887740190000002  0.1937963519999997  0.0281904320000024   F   F   F
  0.6843605039999971  0.3492299320000001  0.0260038640000033   F   F   F
  0.0145680866914302  0.1367127975493653  0.1015790970155388   T   T   T
  0.1872564141549395  0.1882179990519905  0.3199842790556596   T   T   T
  0.2390531991737991  0.5367694586587024  0.3205620145171217   T   T   T
 
  0.00000000E+00  0.00000000E+00  0.00000000E+00
  0.00000000E+00  0.00000000E+00  0.00000000E+00
  0.00000000E+00  0.00000000E+00  0.00000000E+00
  0.00000000E+00  0.00000000E+00  0.00000000E+00
  0.00000000E+00  0.00000000E+00  0.00000000E+00
  0.00000000E+00  0.00000000E+00  0.00000000E+00
  0.00000000E+00  0.00000000E+00  0.00000000E+00
  0.00000000E+00  0.00000000E+00  0.00000000E+00
  0.00000000E+00  0.00000000E+00  0.00000000E+00
  0.00000000E+00  0.00000000E+00  0.00000000E+00
  0.00000000E+00  0.00000000E+00  0.00000000E+00
  0.00000000E+00  0.00000000E+00  0.00000000E+00
  0.00000000E+00  0.00000000E+00  0.00000000E+00
  0.00000000E+00  0.00000000E+00  0.00000000E+00
  0.00000000E+00  0.00000000E+00  0.00000000E+00
  0.00000000E+00  0.00000000E+00  0.00000000E+00
  0.00000000E+00  0.00000000E+00  0.00000000E+00
  0.00000000E+00  0.00000000E+00  0.00000000E+00
  0.00000000E+00  0.00000000E+00  0.00000000E+00
  0.00000000E+00  0.00000000E+00  0.00000000E+00
  0.00000000E+00  0.00000000E+00  0.00000000E+00
  0.00000000E+00  0.00000000E+00  0.00000000E+00
  0.00000000E+00  0.00000000E+00  0.00000000E+00
  0.00000000E+00  0.00000000E+00  0.00000000E+00
  0.00000000E+00  0.00000000E+00  0.00000000E+00
  0.00000000E+00  0.00000000E+00  0.00000000E+00
  0.00000000E+00  0.00000000E+00  0.00000000E+00
  0.00000000E+00  0.00000000E+00  0.00000000E+00
  0.00000000E+00  0.00000000E+00  0.00000000E+00
  0.00000000E+00  0.00000000E+00  0.00000000E+00
  0.00000000E+00  0.00000000E+00  0.00000000E+00
  0.00000000E+00  0.00000000E+00  0.00000000E+00
  0.00000000E+00  0.00000000E+00  0.00000000E+00
  0.00000000E+00  0.00000000E+00  0.00000000E+00
  0.00000000E+00  0.00000000E+00  0.00000000E+00
  0.00000000E+00  0.00000000E+00  0.00000000E+00
  0.00000000E+00  0.00000000E+00  0.00000000E+00
  0.00000000E+00  0.00000000E+00  0.00000000E+00
  0.00000000E+00  0.00000000E+00  0.00000000E+00
  0.00000000E+00  0.00000000E+00  0.00000000E+00
  0.00000000E+00  0.00000000E+00  0.00000000E+00
  0.00000000E+00  0.00000000E+00  0.00000000E+00
  0.00000000E+00  0.00000000E+00  0.00000000E+00
  0.00000000E+00  0.00000000E+00  0.00000000E+00
  0.00000000E+00  0.00000000E+00  0.00000000E+00
  0.00000000E+00  0.00000000E+00  0.00000000E+00
  0.00000000E+00  0.00000000E+00  0.00000000E+00
  0.00000000E+00  0.00000000E+00  0.00000000E+00
  0.00000000E+00  0.00000000E+00  0.00000000E+00
  0.00000000E+00  0.00000000E+00  0.00000000E+00
  0.00000000E+00  0.00000000E+00  0.00000000E+00
  0.00000000E+00  0.00000000E+00  0.00000000E+00
  0.00000000E+00  0.00000000E+00  0.00000000E+00
  0.00000000E+00  0.00000000E+00  0.00000000E+00
  0.00000000E+00  0.00000000E+00  0.00000000E+00
  0.00000000E+00  0.00000000E+00  0.00000000E+00
  0.00000000E+00  0.00000000E+00  0.00000000E+00
  0.00000000E+00  0.00000000E+00  0.00000000E+00
  0.00000000E+00  0.00000000E+00  0.00000000E+00
  0.00000000E+00  0.00000000E+00  0.00000000E+00
  0.00000000E+00  0.00000000E+00  0.00000000E+00
  0.00000000E+00  0.00000000E+00  0.00000000E+00
  0.00000000E+00  0.00000000E+00  0.00000000E+00
  0.00000000E+00  0.00000000E+00  0.00000000E+00
  0.00000000E+00  0.00000000E+00  0.00000000E+00
  0.00000000E+00  0.00000000E+00  0.00000000E+00
  0.00000000E+00  0.00000000E+00  0.00000000E+00
  0.00000000E+00  0.00000000E+00  0.00000000E+00
  0.00000000E+00  0.00000000E+00  0.00000000E+00
  0.00000000E+00  0.00000000E+00  0.00000000E+00
  0.00000000E+00  0.00000000E+00  0.00000000E+00
  0.00000000E+00  0.00000000E+00  0.00000000E+00
  0.00000000E+00  0.00000000E+00  0.00000000E+00
