Ni Nb  W                                
   1.00000000000000     
     7.7784981728000000    0.0000000000000000    0.0000000000000000
     0.0000000000000000   13.1377048492000004    0.0000000000000000
     0.0000000000000000    0.0000000000000000   28.7584705352999990
   Ni   Nb   W    Cl
    53     6    13     1
Selective dynamics
Direct
  0.0135610318616562  0.4739161472186543  0.2385974115968530   T   T   T
  0.1905610372859218  0.9723687119463702  0.2482023276981281   T   T   T
  0.0178994271210698  0.0267558766978145  0.1753683006369963   T   T   T
  0.1749490046493018  0.1957558586299362  0.1710211120044353   T   T   T
  0.1795697445548138  0.9748256648740939  0.1023288924961422   T   T   T
  0.8563522819111679  0.3117539585703409  0.2382368732635626   T   T   T
  0.1818560359999992  0.3093255160000012  0.0972650719999990   F   F   F
  0.5201920379052402  0.1957606776819967  0.1713093950143859   T   T   T
  0.6917462939999979  0.7035307880000019  0.0247470099999987   F   F   F
  0.0155062589215122  0.3594688270782989  0.1687025174825084   T   T   T
  0.6823545646319549  0.8017089949113291  0.2439753938351462   T   T   T
  0.5177471040000015  0.2996462580000028  0.0974301919999974   F   F   F
  0.3507985457142059  0.0291520524055790  0.1721548732755868   T   T   T
  0.8437342403122748  0.9709000449745792  0.2469734570915834   T   T   T
  0.8497515919999969  0.6403434280000013  0.0961147769999968   F   F   F
  0.6921568052903103  0.4791311485929002  0.2383878091201299   T   T   T
  0.6891554135674358  0.6928802260949684  0.1698797263012636   T   T   T
  0.0171159309632750  0.8097086305976169  0.1011248807580458   T   T   T
  0.0185414529999974  0.7024991509999978  0.0275625080000026   F   F   F
  0.3572297990000024  0.3579984610000011  0.0252356120000030   F   F   F
  0.8485501482043400  0.9742719259263052  0.1002897977906779   T   T   T
  0.0147341699999970  0.4708800610000026  0.0956616400000030   F   F   F
  0.5200131571815333  0.6409023501466817  0.2401231090172455   T   T   T
  0.3577611986034587  0.8038632940691425  0.2480365537115460   T   T   T
  0.5201552143912862  0.5257500413679584  0.1694824671804235   T   T   T
  0.3567467485265270  0.6967335689210093  0.1721790587768715   T   T   T
  0.0152699754660343  0.6928415391115064  0.1692045097952954   T   T   T
  0.8534010050000020  0.3019486959999966  0.0979355050000024   F   F   F
  0.3413650689999983  0.8095151189999967  0.0985551850000022   F   F   F
  0.3422156869999995  0.0250572039999994  0.0307581819999996   F   F   F
  0.1740778895818191  0.3104344232890289  0.2418801250637471   T   T   T
  0.8486854430000008  0.8656123880000024  0.0288366859999982   F   F   F
  0.5167879470099995  0.8580155326357056  0.1696094449362175   T   T   T
  0.6840624809999980  0.1393197769999972  0.0987225100000018   F   F   F
  0.8516423433614857  0.5270971883248883  0.1668795718872665   T   T   T
  0.3482605219999968  0.7007359859999980  0.0229743270000000   F   F   F
  0.0146077910000031  0.3566545250000033  0.0253795329999988   F   F   F
  0.6829489081212855  0.0298677426347020  0.1717492382375413   T   T   T
  0.6767904229660187  0.1390509538303434  0.2430146064369818   T   T   T
  0.5157557129999972  0.1856584849999976  0.0281831380000028   F   F   F
  0.8523347969999975  0.5345430369999988  0.0242095010000014   F   F   F
  0.3483983481854478  0.1390435226910325  0.0996746220769344   T   T   T
  0.6923144459999975  0.8071591260000019  0.0983073040000022   F   F   F
  0.8530603399475207  0.6391994075320109  0.2404590637876946   T   T   T
  0.3536347149999983  0.4732178450000006  0.0948955040000001   F   F   F
  0.6812764410000014  0.0258702209999981  0.0286196730000015   F   F   F
  0.1851409380000035  0.8634562490000022  0.0297011839999968   F   F   F
  0.5175444024348727  0.9753893804138929  0.0997952796019846   T   T   T
  0.8429671851374628  0.1947166385182476  0.1708131154625472   T   T   T
  0.0211668070000002  0.0254240820000007  0.0290910149999988   F   F   F
  0.6832948601372605  0.3591606320751497  0.1695593014708076   T   T   T
  0.8559145330000035  0.1876423360000032  0.0269342510000001   F   F   F
  0.1783759890000027  0.6445236799999989  0.0964093059999982   F   F   F
  0.5512172500329976  0.3181723894635743  0.2600077908737270   T   T   T
  0.1766777189999971  0.5275862809999978  0.0239309560000009   F   F   F
  0.9904086924407056  0.1416079309819114  0.2465204188919248   T   T   T
  0.5365906359999997  0.5354745389999991  0.0088244169999996   F   F   F
  0.3471168337106507  0.1476516476682120  0.2422938656837932   T   T   T
  0.5078402159999982  0.6487638349999969  0.0954028519999994   F   F   F
  0.3559402533923497  0.4776455038920656  0.2514078040457314   T   T   T
  0.3562375060173115  0.3573856006199514  0.1736186687453372   T   T   T
  0.8400991266958017  0.8635938894455770  0.1729689406270790   T   T   T
  0.5200318099999990  0.8654208780000019  0.0321695470000023   F   F   F
  0.1881417361461297  0.8593609082305721  0.1770827950462727   T   T   T
  0.0123990506619642  0.8106047100106457  0.2498894980979484   T   T   T
  0.5223678952745342  0.9646257039517638  0.2393343283658726   T   T   T
  0.6847048999999998  0.4701468049999988  0.0940269379999989   F   F   F
  0.1852112014551615  0.6382564509333105  0.2404447845543556   T   T   T
  0.1805793621218609  0.5259169826163668  0.1653070510421526   T   T   T
  0.1887740190000002  0.1937963519999997  0.0281904320000024   F   F   F
  0.6843605039999971  0.3492299320000001  0.0260038640000033   F   F   F
  0.0136718680693220  0.1362283575167256  0.1004147168190217   T   T   T
  0.4145721286273714  0.3994585908783853  0.3291355863590321   T   T   T
 
  0.00000000E+00  0.00000000E+00  0.00000000E+00
  0.00000000E+00  0.00000000E+00  0.00000000E+00
  0.00000000E+00  0.00000000E+00  0.00000000E+00
  0.00000000E+00  0.00000000E+00  0.00000000E+00
  0.00000000E+00  0.00000000E+00  0.00000000E+00
  0.00000000E+00  0.00000000E+00  0.00000000E+00
  0.00000000E+00  0.00000000E+00  0.00000000E+00
  0.00000000E+00  0.00000000E+00  0.00000000E+00
  0.00000000E+00  0.00000000E+00  0.00000000E+00
  0.00000000E+00  0.00000000E+00  0.00000000E+00
  0.00000000E+00  0.00000000E+00  0.00000000E+00
  0.00000000E+00  0.00000000E+00  0.00000000E+00
  0.00000000E+00  0.00000000E+00  0.00000000E+00
  0.00000000E+00  0.00000000E+00  0.00000000E+00
  0.00000000E+00  0.00000000E+00  0.00000000E+00
  0.00000000E+00  0.00000000E+00  0.00000000E+00
  0.00000000E+00  0.00000000E+00  0.00000000E+00
  0.00000000E+00  0.00000000E+00  0.00000000E+00
  0.00000000E+00  0.00000000E+00  0.00000000E+00
  0.00000000E+00  0.00000000E+00  0.00000000E+00
  0.00000000E+00  0.00000000E+00  0.00000000E+00
  0.00000000E+00  0.00000000E+00  0.00000000E+00
  0.00000000E+00  0.00000000E+00  0.00000000E+00
  0.00000000E+00  0.00000000E+00  0.00000000E+00
  0.00000000E+00  0.00000000E+00  0.00000000E+00
  0.00000000E+00  0.00000000E+00  0.00000000E+00
  0.00000000E+00  0.00000000E+00  0.00000000E+00
  0.00000000E+00  0.00000000E+00  0.00000000E+00
  0.00000000E+00  0.00000000E+00  0.00000000E+00
  0.00000000E+00  0.00000000E+00  0.00000000E+00
  0.00000000E+00  0.00000000E+00  0.00000000E+00
  0.00000000E+00  0.00000000E+00  0.00000000E+00
  0.00000000E+00  0.00000000E+00  0.00000000E+00
  0.00000000E+00  0.00000000E+00  0.00000000E+00
  0.00000000E+00  0.00000000E+00  0.00000000E+00
  0.00000000E+00  0.00000000E+00  0.00000000E+00
  0.00000000E+00  0.00000000E+00  0.00000000E+00
  0.00000000E+00  0.00000000E+00  0.00000000E+00
  0.00000000E+00  0.00000000E+00  0.00000000E+00
  0.00000000E+00  0.00000000E+00  0.00000000E+00
  0.00000000E+00  0.00000000E+00  0.00000000E+00
  0.00000000E+00  0.00000000E+00  0.00000000E+00
  0.00000000E+00  0.00000000E+00  0.00000000E+00
  0.00000000E+00  0.00000000E+00  0.00000000E+00
  0.00000000E+00  0.00000000E+00  0.00000000E+00
  0.00000000E+00  0.00000000E+00  0.00000000E+00
  0.00000000E+00  0.00000000E+00  0.00000000E+00
  0.00000000E+00  0.00000000E+00  0.00000000E+00
  0.00000000E+00  0.00000000E+00  0.00000000E+00
  0.00000000E+00  0.00000000E+00  0.00000000E+00
  0.00000000E+00  0.00000000E+00  0.00000000E+00
  0.00000000E+00  0.00000000E+00  0.00000000E+00
  0.00000000E+00  0.00000000E+00  0.00000000E+00
  0.00000000E+00  0.00000000E+00  0.00000000E+00
  0.00000000E+00  0.00000000E+00  0.00000000E+00
  0.00000000E+00  0.00000000E+00  0.00000000E+00
  0.00000000E+00  0.00000000E+00  0.00000000E+00
  0.00000000E+00  0.00000000E+00  0.00000000E+00
  0.00000000E+00  0.00000000E+00  0.00000000E+00
  0.00000000E+00  0.00000000E+00  0.00000000E+00
  0.00000000E+00  0.00000000E+00  0.00000000E+00
  0.00000000E+00  0.00000000E+00  0.00000000E+00
  0.00000000E+00  0.00000000E+00  0.00000000E+00
  0.00000000E+00  0.00000000E+00  0.00000000E+00
  0.00000000E+00  0.00000000E+00  0.00000000E+00
  0.00000000E+00  0.00000000E+00  0.00000000E+00
  0.00000000E+00  0.00000000E+00  0.00000000E+00
  0.00000000E+00  0.00000000E+00  0.00000000E+00
  0.00000000E+00  0.00000000E+00  0.00000000E+00
  0.00000000E+00  0.00000000E+00  0.00000000E+00
  0.00000000E+00  0.00000000E+00  0.00000000E+00
  0.00000000E+00  0.00000000E+00  0.00000000E+00
  0.00000000E+00  0.00000000E+00  0.00000000E+00
