Ni Nb  W                                
   1.00000000000000     
     7.7784981728000000    0.0000000000000000    0.0000000000000000
     0.0000000000000000   13.1377048492000004    0.0000000000000000
     0.0000000000000000    0.0000000000000000   28.7584705352999990
Ni  Nb  W  Cl
53  6  13  2
Selective dynamics
Direct
  0.0156632637257826  0.4788999212501260  0.2391416056911974   T   T   T
  0.1910582138194356  0.9760806058301363  0.2484755888919387   T   T   T
  0.0179578995818591  0.0280920741362420  0.1752923142242864   T   T   T
  0.1758632948813824  0.1974200059928651  0.1722517339835512   T   T   T
  0.1803392690148001  0.9750846524724560  0.1026378684005052   T   T   T
  0.8615477126831121  0.3144803512424382  0.2380977014858788   T   T   T
  0.1818560359999992  0.3093255160000012  0.0972650719999990   F   F   F
  0.5196382634092801  0.1969293095365617  0.1718124157773770   T   T   T
  0.6917462939999979  0.7035307880000019  0.0247470099999987   F   F   F
  0.0188881482191515  0.3612389390716508  0.1688278043259861   T   T   T
  0.6839878247022011  0.8057231400720709  0.2437814943286772   T   T   T
  0.5177471040000015  0.2996462580000028  0.0974301919999974   F   F   F
  0.3493657467365994  0.0321029212802095  0.1732155638023354   T   T   T
  0.8450282887922027  0.9739958232393281  0.2463058719423870   T   T   T
  0.8497515919999969  0.6403434280000013  0.0961147769999968   F   F   F
  0.6910997033169859  0.4810469766490804  0.2390897601665586   T   T   T
  0.6881261663663726  0.6948987486760320  0.1699805575768657   T   T   T
  0.0173958094672118  0.8094016372814817  0.1014488976892423   T   T   T
  0.0185414529999974  0.7024991509999978  0.0275625080000026   F   F   F
  0.3572297990000024  0.3579984610000011  0.0252356120000030   F   F   F
  0.8487186730220273  0.9744953066728781  0.1000806504992297   T   T   T
  0.0147341699999970  0.4708800610000026  0.0956616400000030   F   F   F
  0.5192368446981965  0.6433380033387326  0.2405239848184629   T   T   T
  0.3616356151414210  0.8070152221465474  0.2483009882861313   T   T   T
  0.5235240366335235  0.5275550083871366  0.1692188718923745   T   T   T
  0.3538471377042668  0.6972623435825480  0.1728799264618031   T   T   T
  0.0140052022234287  0.6932952601732467  0.1706143575137702   T   T   T
  0.8534010050000020  0.3019486959999966  0.0979355050000024   F   F   F
  0.3413650689999983  0.8095151189999967  0.0985551850000022   F   F   F
  0.3422156869999995  0.0250572039999994  0.0307581819999996   F   F   F
  0.1835829274699725  0.3159082233432756  0.2442097649661355   T   T   T
  0.8486854430000008  0.8656123880000024  0.0288366859999982   F   F   F
  0.5156637741666829  0.8601145974536615  0.1701038618017807   T   T   T
  0.6840624809999980  0.1393197769999972  0.0987225100000018   F   F   F
  0.8519268118204247  0.5283430764995637  0.1674054846746303   T   T   T
  0.3482605219999968  0.7007359859999980  0.0229743270000000   F   F   F
  0.0146077910000031  0.3566545250000033  0.0253795329999988   F   F   F
  0.6839190218039233  0.0313762600594441  0.1715284591367962   T   T   T
  0.6827265843623076  0.1419571073810480  0.2420681797328255   T   T   T
  0.5157557129999972  0.1856584849999976  0.0281831380000028   F   F   F
  0.8523347969999975  0.5345430369999988  0.0242095010000014   F   F   F
  0.3485209799726274  0.1393710647965151  0.1000304078887363   T   T   T
  0.6923144459999975  0.8071591260000019  0.0983073040000022   F   F   F
  0.8498649004789102  0.6420951802916669  0.2415507232061257   T   T   T
  0.3536347149999983  0.4732178450000006  0.0948955040000001   F   F   F
  0.6812764410000014  0.0258702209999981  0.0286196730000015   F   F   F
  0.1851409380000035  0.8634562490000022  0.0297011839999968   F   F   F
  0.5167238544748717  0.9755379303091419  0.1000027220817968   T   T   T
  0.8447958689675854  0.1966264017228912  0.1707898888494234   T   T   T
  0.0211668070000002  0.0254240820000007  0.0290910149999988   F   F   F
  0.6840965912091860  0.3603620540803684  0.1700242592992216   T   T   T
  0.8559145330000035  0.1876423360000032  0.0269342510000001   F   F   F
  0.1783759890000027  0.6445236799999989  0.0964093059999982   F   F   F
  0.5655500668951733  0.3186893933740684  0.2677964056176212   T   T   T
  0.1766777189999971  0.5275862809999978  0.0239309560000009   F   F   F
 -0.0033703898203093  0.1433495403138727  0.2465771966114147   T   T   T
  0.5365906359999997  0.5354745389999991  0.0088244169999996   F   F   F
  0.3519713428281457  0.1553872290712426  0.2450225054292534   T   T   T
  0.5078402159999982  0.6487638349999969  0.0954028519999994   F   F   F
  0.3554993095767494  0.4769904400800928  0.2444693698782069   T   T   T
  0.3582263811407792  0.3571499428520805  0.1721726415772822   T   T   T
  0.8394044261382084  0.8654592511182749  0.1725343964901104   T   T   T
  0.5200318099999990  0.8654208780000019  0.0321695470000023   F   F   F
  0.1878103773146740  0.8607703433309267  0.1775063940043990   T   T   T
  0.0149144436023125  0.8120389019020684  0.2505062573307546   T   T   T
  0.5221328617076465  0.9697885260482320  0.2395246875254161   T   T   T
  0.6847048999999998  0.4701468049999988  0.0940269379999989   F   F   F
  0.1829133660448104  0.6450088360868259  0.2432789533909422   T   T   T
  0.1803624528793841  0.5282089462513121  0.1651003354958985   T   T   T
  0.1887740190000002  0.1937963519999997  0.0281904320000024   F   F   F
  0.6843605039999971  0.3492299320000001  0.0260038640000033   F   F   F
  0.0145212508654200  0.1366632905793297  0.1005530242056375   T   T   T
  0.5508830299164889  0.3197204807253258  0.3474776470674053   T   T   T
     0.35535  0.35635  0.32  T  T  T
