Ni Nb  W                                
   1.00000000000000     
     7.7784981728000000    0.0000000000000000    0.0000000000000000
     0.0000000000000000   13.1377048492000004    0.0000000000000000
     0.0000000000000000    0.0000000000000000   28.7584705352999990
   Ni   Nb   W    Cl
    53     6    13     5
Selective dynamics
Direct
  0.0154529563000462  0.4792566218503537  0.2381311770396490   T   T   T
  0.1868532632242290  0.9751427475856539  0.2472762287878547   T   T   T
  0.0164961120111672  0.0273473386542034  0.1746308411699324   T   T   T
  0.1743013786266911  0.1967647574641999  0.1715443646749860   T   T   T
  0.1792613838144660  0.9739782354075593  0.1022896012140099   T   T   T
  0.8675738914663180  0.3146078372115689  0.2381394317200745   T   T   T
  0.1818560359999992  0.3093255160000012  0.0972650719999990   F   F   F
  0.5213249114089932  0.1967879373543504  0.1717923400218623   T   T   T
  0.6917462939999979  0.7035307880000019  0.0247470099999987   F   F   F
  0.0204085400123084  0.3623460063627948  0.1683854661059433   T   T   T
  0.6850992234712469  0.8063665262982078  0.2412972322149377   T   T   T
  0.5177471040000015  0.2996462580000028  0.0974301919999974   F   F   F
  0.3482671743639019  0.0316495384392889  0.1719665080153311   T   T   T
  0.8428825767565605  0.9745479018616059  0.2444396955846686   T   T   T
  0.8497515919999969  0.6403434280000013  0.0961147769999968   F   F   F
  0.6928151561938531  0.4806353361020744  0.2378441804481732   T   T   T
  0.6879107827644950  0.6937030549321145  0.1696633549311846   T   T   T
  0.0166306599883299  0.8072455198429748  0.1021877410281923   T   T   T
  0.0185414529999974  0.7024991509999978  0.0275625080000026   F   F   F
  0.3572297990000024  0.3579984610000011  0.0252356120000030   F   F   F
  0.8492615401064517  0.9739732630798443  0.0996956114059878   T   T   T
  0.0147341699999970  0.4708800610000026  0.0956616400000030   F   F   F
  0.5229675313708181  0.6405405102529723  0.2412007276204073   T   T   T
  0.3618142808735889  0.8093161366649450  0.2461243747742260   T   T   T
  0.5233599623473679  0.5269574590602850  0.1690531587002863   T   T   T
  0.3473100608411578  0.6931837912023917  0.1740359576847773   T   T   T
  0.0226649791398402  0.6945848654311914  0.1764366625595852   T   T   T
  0.8534010050000020  0.3019486959999966  0.0979355050000024   F   F   F
  0.3413650689999983  0.8095151189999967  0.0985551850000022   F   F   F
  0.3422156869999995  0.0250572039999994  0.0307581819999996   F   F   F
  0.1835340437551770  0.3130366920986225  0.2424715148691569   T   T   T
  0.8486854430000008  0.8656123880000024  0.0288366859999982   F   F   F
  0.5128101460081742  0.8579323831131180  0.1689744052228206   T   T   T
  0.6840624809999980  0.1393197769999972  0.0987225100000018   F   F   F
  0.8539383540160046  0.5293213605481626  0.1670916279173662   T   T   T
  0.3482605219999968  0.7007359859999980  0.0229743270000000   F   F   F
  0.0146077910000031  0.3566545250000033  0.0253795329999988   F   F   F
  0.6822303856077337  0.0318812870358925  0.1705266146315667   T   T   T
  0.6831053673474965  0.1386379698363682  0.2430148442717074   T   T   T
  0.5157557129999972  0.1856584849999976  0.0281831380000028   F   F   F
  0.8523347969999975  0.5345430369999988  0.0242095010000014   F   F   F
  0.3482694559415490  0.1395399933444058  0.0997010902884666   T   T   T
  0.6923144459999975  0.8071591260000019  0.0983073040000022   F   F   F
  0.8489877563393069  0.6393207559115421  0.2404352913092664   T   T   T
  0.3536347149999983  0.4732178450000006  0.0948955040000001   F   F   F
  0.6812764410000014  0.0258702209999981  0.0286196730000015   F   F   F
  0.1851409380000035  0.8634562490000022  0.0297011839999968   F   F   F
  0.5164728687591629  0.9756022388704898  0.0996990261577011   T   T   T
  0.8449732773695355  0.1962620711168016  0.1712250827850942   T   T   T
  0.0211668070000002  0.0254240820000007  0.0290910149999988   F   F   F
  0.6884796976250268  0.3596458560969516  0.1691665682076744   T   T   T
  0.8559145330000035  0.1876423360000032  0.0269342510000001   F   F   F
  0.1783759890000027  0.6445236799999989  0.0964093059999982   F   F   F
  0.5606545269789923  0.3149116671442726  0.2518588089240602   T   T   T
  0.1766777189999971  0.5275862809999978  0.0239309560000009   F   F   F
  0.9951363978356679  0.1425012353127549  0.2470940645673105   T   T   T
  0.5365906359999997  0.5354745389999991  0.0088244169999996   F   F   F
  0.3470928937416712  0.1515519819218617  0.2446712048362100   T   T   T
  0.5078402159999982  0.6487638349999969  0.0954028519999994   F   F   F
  0.3616755084503895  0.4753253738475018  0.2452252056591810   T   T   T
  0.3555531999361766  0.3550403590686817  0.1695721926789335   T   T   T
  0.8349952520588559  0.8653124681865355  0.1713043692441487   T   T   T
  0.5200318099999990  0.8654208780000019  0.0321695470000023   F   F   F
  0.1861739859728311  0.8607170053605783  0.1766948701767066   T   T   T
  0.0081236288436050  0.8168583770294214  0.2529382567570855   T   T   T
  0.5203181158467546  0.9711055756009573  0.2380847637981568   T   T   T
  0.6847048999999998  0.4701468049999988  0.0940269379999989   F   F   F
  0.1773749235447697  0.6445247367827188  0.2591830097705402   T   T   T
  0.1831199361763590  0.5316218607667202  0.1681736240823356   T   T   T
  0.1887740190000002  0.1937963519999997  0.0281904320000024   F   F   F
  0.6843605039999971  0.3492299320000001  0.0260038640000033   F   F   F
  0.0140774418966773  0.1362461147427416  0.1003904533509067   T   T   T
  0.0265154672535405  0.7324472134787743  0.3275722424918667   T   T   T
  0.4338487264993638  0.7075073042649742  0.3098102047835882   T   T   T
  0.2028611657871829  0.5019199147918201  0.3182360623082823   T   T   T
  0.85394   0.52932  0.3382360623082823  T  T  T
  0.18617   0.86072  0.3382360623082823  T  T  T
 
  0.00000000E+00  0.00000000E+00  0.00000000E+00
  0.00000000E+00  0.00000000E+00  0.00000000E+00
  0.00000000E+00  0.00000000E+00  0.00000000E+00
  0.00000000E+00  0.00000000E+00  0.00000000E+00
  0.00000000E+00  0.00000000E+00  0.00000000E+00
  0.00000000E+00  0.00000000E+00  0.00000000E+00
  0.00000000E+00  0.00000000E+00  0.00000000E+00
  0.00000000E+00  0.00000000E+00  0.00000000E+00
  0.00000000E+00  0.00000000E+00  0.00000000E+00
  0.00000000E+00  0.00000000E+00  0.00000000E+00
  0.00000000E+00  0.00000000E+00  0.00000000E+00
  0.00000000E+00  0.00000000E+00  0.00000000E+00
  0.00000000E+00  0.00000000E+00  0.00000000E+00
  0.00000000E+00  0.00000000E+00  0.00000000E+00
  0.00000000E+00  0.00000000E+00  0.00000000E+00
  0.00000000E+00  0.00000000E+00  0.00000000E+00
  0.00000000E+00  0.00000000E+00  0.00000000E+00
  0.00000000E+00  0.00000000E+00  0.00000000E+00
  0.00000000E+00  0.00000000E+00  0.00000000E+00
  0.00000000E+00  0.00000000E+00  0.00000000E+00
  0.00000000E+00  0.00000000E+00  0.00000000E+00
  0.00000000E+00  0.00000000E+00  0.00000000E+00
  0.00000000E+00  0.00000000E+00  0.00000000E+00
  0.00000000E+00  0.00000000E+00  0.00000000E+00
  0.00000000E+00  0.00000000E+00  0.00000000E+00
  0.00000000E+00  0.00000000E+00  0.00000000E+00
  0.00000000E+00  0.00000000E+00  0.00000000E+00
  0.00000000E+00  0.00000000E+00  0.00000000E+00
  0.00000000E+00  0.00000000E+00  0.00000000E+00
  0.00000000E+00  0.00000000E+00  0.00000000E+00
  0.00000000E+00  0.00000000E+00  0.00000000E+00
  0.00000000E+00  0.00000000E+00  0.00000000E+00
  0.00000000E+00  0.00000000E+00  0.00000000E+00
  0.00000000E+00  0.00000000E+00  0.00000000E+00
  0.00000000E+00  0.00000000E+00  0.00000000E+00
  0.00000000E+00  0.00000000E+00  0.00000000E+00
  0.00000000E+00  0.00000000E+00  0.00000000E+00
  0.00000000E+00  0.00000000E+00  0.00000000E+00
  0.00000000E+00  0.00000000E+00  0.00000000E+00
  0.00000000E+00  0.00000000E+00  0.00000000E+00
  0.00000000E+00  0.00000000E+00  0.00000000E+00
  0.00000000E+00  0.00000000E+00  0.00000000E+00
  0.00000000E+00  0.00000000E+00  0.00000000E+00
  0.00000000E+00  0.00000000E+00  0.00000000E+00
  0.00000000E+00  0.00000000E+00  0.00000000E+00
  0.00000000E+00  0.00000000E+00  0.00000000E+00
  0.00000000E+00  0.00000000E+00  0.00000000E+00
  0.00000000E+00  0.00000000E+00  0.00000000E+00
  0.00000000E+00  0.00000000E+00  0.00000000E+00
  0.00000000E+00  0.00000000E+00  0.00000000E+00
  0.00000000E+00  0.00000000E+00  0.00000000E+00
  0.00000000E+00  0.00000000E+00  0.00000000E+00
  0.00000000E+00  0.00000000E+00  0.00000000E+00
  0.00000000E+00  0.00000000E+00  0.00000000E+00
  0.00000000E+00  0.00000000E+00  0.00000000E+00
  0.00000000E+00  0.00000000E+00  0.00000000E+00
  0.00000000E+00  0.00000000E+00  0.00000000E+00
  0.00000000E+00  0.00000000E+00  0.00000000E+00
  0.00000000E+00  0.00000000E+00  0.00000000E+00
  0.00000000E+00  0.00000000E+00  0.00000000E+00
  0.00000000E+00  0.00000000E+00  0.00000000E+00
  0.00000000E+00  0.00000000E+00  0.00000000E+00
  0.00000000E+00  0.00000000E+00  0.00000000E+00
  0.00000000E+00  0.00000000E+00  0.00000000E+00
  0.00000000E+00  0.00000000E+00  0.00000000E+00
  0.00000000E+00  0.00000000E+00  0.00000000E+00
  0.00000000E+00  0.00000000E+00  0.00000000E+00
  0.00000000E+00  0.00000000E+00  0.00000000E+00
  0.00000000E+00  0.00000000E+00  0.00000000E+00
  0.00000000E+00  0.00000000E+00  0.00000000E+00
  0.00000000E+00  0.00000000E+00  0.00000000E+00
  0.00000000E+00  0.00000000E+00  0.00000000E+00
  0.00000000E+00  0.00000000E+00  0.00000000E+00
  0.00000000E+00  0.00000000E+00  0.00000000E+00
  0.00000000E+00  0.00000000E+00  0.00000000E+00
