Nb Cell
 1.0000000000000000
     3.2999999999999998    0.0000000000000000    0.0000000000000000
     0.0000000000000000    3.2999999999999998    0.0000000000000000
     0.0000000000000000    0.0000000000000000    3.2999999999999998
 Nb 
   2
Direct
  0.0000000000000000  0.0000000000000000  0.0000000000000000
  0.5000000000000000  0.5000000000000000  0.5000000000000000
